<?xml version = "1.0" encoding="UTF-8" standalone="yes"?>
<CPLEXSolution version="1.2">
 <header
   problemName="IloCplex"
   solutionName="p0"
   solutionIndex="-1"
   objectiveValue="498154"
   solutionTypeValue="3"
   solutionTypeString="primal"
   solutionStatusValue="127"
   solutionStatusString="integer feasible solution"
   solutionMethodString="mip"
   primalFeasible="0"
   dualFeasible="0"
   writeLevel="3"/>
 <quality
   epInt="1.0000000000000001e-05"
   epRHS="9.9999999999999995e-07"
   maxIntInfeas="0"
   maxPrimalInfeas="0"
   maxX="233"
   maxSlack="9538"/>
 <variables>
  <variable index="0" value="233"/>
  <variable index="1" value="233"/>
  <variable index="4" value="233"/>
  <variable index="5" value="233"/>
  <variable index="6" value="233"/>
  <variable index="7" value="233"/>
  <variable index="8" value="233"/>
  <variable index="9" value="233"/>
  <variable index="10" value="233"/>
  <variable index="11" value="233"/>
  <variable index="103" value="1"/>
  <variable index="148" value="1"/>
  <variable index="228" value="1"/>
  <variable index="376" value="1"/>
  <variable index="478" value="1"/>
  <variable index="580" value="1"/>
  <variable index="629" value="1"/>
  <variable index="811" value="1"/>
  <variable index="837" value="1"/>
  <variable index="1001" value="1"/>
  <variable index="1042" value="1"/>
  <variable index="1198" value="1"/>
  <variable index="1247" value="1"/>
  <variable index="1331" value="1"/>
  <variable index="1421" value="1"/>
  <variable index="1536" value="1"/>
  <variable index="1689" value="1"/>
  <variable index="1717" value="1"/>
  <variable index="1863" value="1"/>
  <variable index="1961" value="1"/>
  <variable index="2040" value="1"/>
  <variable index="2130" value="1"/>
  <variable index="2223" value="1"/>
  <variable index="2353" value="1"/>
  <variable index="2492" value="1"/>
  <variable index="2535" value="1"/>
  <variable index="2646" value="1"/>
  <variable index="2725" value="1"/>
  <variable index="2884" value="1"/>
  <variable index="2949" value="1"/>
  <variable index="3100" value="1"/>
  <variable index="3141" value="1"/>
  <variable index="3227" value="1"/>
  <variable index="3316" value="1"/>
  <variable index="3444" value="1"/>
  <variable index="3614" value="1"/>
  <variable index="3659" value="1"/>
  <variable index="3769" value="1"/>
  <variable index="3838" value="1"/>
  <variable index="3977" value="1"/>
  <variable index="4090" value="1"/>
  <variable index="4204" value="1"/>
  <variable index="4293" value="1"/>
  <variable index="4397" value="1"/>
  <variable index="4451" value="1"/>
  <variable index="4596" value="1"/>
  <variable index="4634" value="1"/>
  <variable index="4773" value="1"/>
  <variable index="4833" value="1"/>
  <variable index="4987" value="1"/>
  <variable index="5075" value="1"/>
  <variable index="5172" value="1"/>
  <variable index="5274" value="1"/>
  <variable index="5409" value="1"/>
  <variable index="5452" value="1"/>
  <variable index="5608" value="1"/>
  <variable index="5702" value="1"/>
  <variable index="5810" value="1"/>
  <variable index="5862" value="1"/>
  <variable index="5967" value="1"/>
  <variable index="6065" value="1"/>
  <variable index="6122" value="1"/>
  <variable index="6254" value="1"/>
  <variable index="6319" value="1"/>
  <variable index="6483" value="1"/>
  <variable index="6520" value="1"/>
  <variable index="6685" value="1"/>
  <variable index="6812" value="1"/>
  <variable index="6879" value="1"/>
  <variable index="6943" value="1"/>
  <variable index="7081" value="1"/>
  <variable index="7191" value="1"/>
  <variable index="7264" value="1"/>
  <variable index="7407" value="1"/>
  <variable index="7418" value="1"/>
  <variable index="7555" value="1"/>
  <variable index="7686" value="1"/>
  <variable index="7739" value="1"/>
  <variable index="7866" value="1"/>
  <variable index="8005" value="1"/>
  <variable index="8113" value="1"/>
  <variable index="8160" value="1"/>
  <variable index="8258" value="1"/>
  <variable index="8326" value="1"/>
  <variable index="8506" value="1"/>
  <variable index="8545" value="1"/>
  <variable index="8624" value="1"/>
  <variable index="8757" value="1"/>
  <variable index="8815" value="1"/>
  <variable index="8956" value="1"/>
  <variable index="9094" value="1"/>
  <variable index="9199" value="1"/>
  <variable index="9288" value="1"/>
  <variable index="9370" value="1"/>
  <variable index="9468" value="1"/>
  <variable index="9571" value="1"/>
  <variable index="9632" value="1"/>
  <variable index="9782" value="1"/>
  <variable index="9895" value="1"/>
  <variable index="9950" value="1"/>
  <variable index="10015" value="1"/>
  <variable index="10018" value="1"/>
  <variable index="10019" value="1"/>
  <variable index="10020" value="1"/>
  <variable index="10021" value="1"/>
  <variable index="10022" value="1"/>
  <variable index="10023" value="1"/>
  <variable index="10024" value="1"/>
  <variable index="10025" value="1"/>
 </variables>
</CPLEXSolution>
